g3 0 1 0	# problem d5n8R4R6d005d1
 8 9 1 0 4	# vars, constraints, objectives, ranges, eqns
 4 1	# nonlinear constraints, objectives
 0 0	# network constraints: nonlinear, linear
 8 8 8	# nonlinear vars in constraints, objectives, both
 0 0 0 1	# linear network variables; functions; arith, flags
 0 0 0 0 0	# discrete variables: binary, integer, nonlinear (b,c,o)
 72 8	# nonzeros in Jacobian, gradients
 0 0	# max name lengths: constraints, variables
 0 0 0 0 0	# common exprs: b,c,o,c1,o1
b
0 0.11 2.14
0 0.61 2.35
0 0.84 2.22
0 0.25 2.82
0 0.2 2.04
0 0.41 2.51
0 0.44 2.92
0 0.43 2.1
r
2 40.764
2 149.102
2 385.876
2 1074.31
4 53.744
4 70.414
4 48.31
4 61.299
2 64.787
C0
o2
o2
n2.17
v2
v2
C1
o54
11
o2
o2
n0.49
v2
v2
o2
o2
o2
n8.96
v0
v0
v3
o2
o2
o2
n3.72
v0
v1
v7
o16
o2
o2
o2
n0.07
v0
v5
v6
o2
o2
o2
n4.3
v1
v1
v6
o2
o2
o2
n0.86
v1
v2
v7
o2
o2
o2
n4.96
v1
v3
v6
o2
o2
o2
n0.69
v3
v5
v7
o2
o2
o2
n3.03
v4
v6
v6
o2
o2
o2
n2.29
v5
v7
v7
o2
o2
o2
n4.17
v7
v7
v7
C2
o54
28
o2
o2
n0.2
v2
v2
o2
o2
o2
n6.94
v0
v0
v3
o2
o2
o2
n5.76
v0
v1
v7
o16
o2
o2
o2
n2.39
v0
v5
v6
o2
o2
o2
n5.79
v1
v1
v6
o2
o2
o2
n6.09
v1
v2
v7
o16
o2
o2
o2
n2.73
v1
v3
v6
o2
o2
o2
n7.41
v3
v5
v7
o2
o2
o2
n8.54
v4
v6
v6
o2
o2
o2
n2.35
v5
v7
v7
o2
o2
o2
n1.85
v7
v7
v7
o2
o2
o2
o2
n9.99
v0
v0
v0
v5
o2
o2
o2
o2
n8.45
v0
v0
v0
v6
o2
o2
o2
o2
n0.04
v0
v0
v2
v4
o2
o2
o2
o2
n1.97
v0
v0
v2
v5
o16
o2
o2
o2
o2
n0.59
v0
v0
v4
v7
o2
o2
o2
o2
n5.96
v0
v0
v5
v6
o2
o2
o2
o2
n0.09
v0
v1
v3
v4
o2
o2
o2
o2
n4.25
v0
v1
v4
v7
o2
o2
o2
o2
n2.65
v0
v2
v2
v4
o2
o2
o2
o2
n0.92
v0
v2
v4
v5
o2
o2
o2
o2
n0.62
v0
v3
v3
v5
o2
o2
o2
o2
n6.65
v1
v1
v1
v1
o16
o2
o2
o2
o2
n3.74
v1
v2
v3
v7
o2
o2
o2
o2
n2.78
v1
v3
v5
v5
o2
o2
o2
o2
n8.64
v1
v3
v5
v6
o2
o2
o2
o2
n9.84
v3
v3
v5
v5
o2
o2
o2
o2
n7.95
v3
v4
v4
v7
C3
o54
64
o2
o2
n7.38
v2
v2
o2
o2
o2
n3.17
v0
v0
v3
o2
o2
o2
n7.88
v0
v1
v7
o2
o2
o2
n2.56
v0
v5
v6
o2
o2
o2
n0.19
v1
v1
v6
o16
o2
o2
o2
n0.87
v1
v2
v7
o2
o2
o2
n7.79
v1
v3
v6
o2
o2
o2
n3.44
v3
v5
v7
o2
o2
o2
n5.51
v4
v6
v6
o2
o2
o2
n3.72
v5
v7
v7
o16
o2
o2
o2
n2.96
v7
v7
v7
o2
o2
o2
o2
n6.27
v0
v0
v0
v5
o2
o2
o2
o2
n4.49
v0
v0
v0
v6
o2
o2
o2
o2
n9.1
v0
v0
v2
v4
o2
o2
o2
o2
n2.28
v0
v0
v2
v5
o2
o2
o2
o2
n4.2
v0
v0
v4
v7
o2
o2
o2
o2
n4.24
v0
v0
v5
v6
o2
o2
o2
o2
n0.58
v0
v1
v3
v4
o2
o2
o2
o2
n3.04
v0
v1
v4
v7
o2
o2
o2
o2
n8.56
v0
v2
v2
v4
o2
o2
o2
o2
n8.07
v0
v2
v4
v5
o2
o2
o2
o2
n9.72
v0
v3
v3
v5
o2
o2
o2
o2
n6.77
v1
v1
v1
v1
o2
o2
o2
o2
n1.25
v1
v2
v3
v7
o2
o2
o2
o2
n6.87
v1
v3
v5
v5
o2
o2
o2
o2
n9.04
v1
v3
v5
v6
o2
o2
o2
o2
n6.27
v3
v3
v5
v5
o2
o2
o2
o2
n8.35
v3
v4
v4
v7
o16
o2
o2
o2
o2
o2
n1.84
v0
v0
v1
v1
v6
o2
o2
o2
o2
o2
n6.3
v0
v0
v1
v6
v7
o2
o2
o2
o2
o2
n4
v0
v0
v2
v4
v7
o2
o2
o2
o2
o2
n5.06
v0
v0
v5
v6
v7
o16
o2
o2
o2
o2
o2
n8.43
v0
v1
v2
v3
v5
o2
o2
o2
o2
o2
n0.01
v0
v1
v3
v3
v6
o2
o2
o2
o2
o2
n1.59
v0
v2
v3
v3
v7
o16
o2
o2
o2
o2
o2
n1.76
v0
v2
v3
v4
v6
o2
o2
o2
o2
o2
n1.54
v0
v2
v3
v5
v5
o2
o2
o2
o2
o2
n6.18
v0
v2
v4
v4
v4
o2
o2
o2
o2
o2
n0.68
v0
v3
v3
v3
v3
o2
o2
o2
o2
o2
n1.46
v0
v4
v4
v5
v7
o2
o2
o2
o2
o2
n1.94
v0
v5
v5
v5
v6
o2
o2
o2
o2
o2
n6.32
v1
v1
v1
v1
v3
o2
o2
o2
o2
o2
n4.99
v1
v1
v1
v4
v7
o2
o2
o2
o2
o2
n8.37
v1
v1
v3
v5
v6
o2
o2
o2
o2
o2
n4.02
v1
v2
v2
v4
v5
o2
o2
o2
o2
o2
n6.72
v1
v2
v2
v6
v6
o2
o2
o2
o2
o2
n3.66
v1
v2
v3
v4
v5
o2
o2
o2
o2
o2
n7.85
v1
v2
v5
v5
v7
o16
o2
o2
o2
o2
o2
n4.66
v1
v2
v5
v6
v6
o2
o2
o2
o2
o2
n8.93
v1
v2
v6
v7
v7
o2
o2
o2
o2
o2
n5.78
v1
v2
v7
v7
v7
o2
o2
o2
o2
o2
n7.48
v1
v3
v3
v4
v7
o2
o2
o2
o2
o2
n3.5
v1
v4
v4
v4
v6
o2
o2
o2
o2
o2
n1.55
v1
v5
v7
v7
v7
o16
o2
o2
o2
o2
o2
n6.23
v2
v2
v3
v5
v7
o2
o2
o2
o2
o2
n9.48
v2
v3
v3
v4
v4
o2
o2
o2
o2
o2
n4.34
v2
v3
v3
v7
v7
o2
o2
o2
o2
o2
n3.2
v2
v3
v4
v4
v6
o2
o2
o2
o2
o2
n2.79
v2
v3
v5
v6
v7
o2
o2
o2
o2
o2
n4.32
v2
v5
v5
v5
v6
o2
o2
o2
o2
o2
n7.83
v3
v4
v5
v7
v7
o2
o2
o2
o2
o2
n6.82
v3
v4
v6
v6
v7
o2
o2
o2
o2
o2
n4.37
v4
v4
v5
v5
v6
o16
o2
o2
o2
o2
o2
n5.65
v4
v6
v6
v7
v7
C4
n0
C5
n0
C6
n0
C7
n0
C8
n0
O0 0
o54
64
o2
o2
n5.39
v2
v2
o2
o2
o2
n4.7
v0
v0
v3
o2
o2
o2
n8.8
v0
v1
v7
o2
o2
o2
n7.24
v0
v5
v6
o2
o2
o2
n6.21
v1
v1
v6
o2
o2
o2
n5.7
v1
v2
v7
o2
o2
o2
n6.81
v1
v3
v6
o2
o2
o2
n4.07
v3
v5
v7
o2
o2
o2
n9.45
v4
v6
v6
o2
o2
o2
n6.74
v5
v7
v7
o16
o2
o2
o2
n5.79
v7
v7
v7
o2
o2
o2
o2
n9.22
v0
v0
v0
v5
o2
o2
o2
o2
n9.73
v0
v0
v0
v6
o2
o2
o2
o2
n5.35
v0
v0
v2
v4
o2
o2
o2
o2
n4.65
v0
v0
v2
v5
o2
o2
o2
o2
n4.96
v0
v0
v4
v7
o2
o2
o2
o2
n5.01
v0
v0
v5
v6
o2
o2
o2
o2
n1.15
v0
v1
v3
v4
o2
o2
o2
o2
n3.98
v0
v1
v4
v7
o2
o2
o2
o2
n1.09
v0
v2
v2
v4
o2
o2
o2
o2
n3.57
v0
v2
v4
v5
o2
o2
o2
o2
n9.56
v0
v3
v3
v5
o2
o2
o2
o2
n8.76
v1
v1
v1
v1
o2
o2
o2
o2
n9.21
v1
v2
v3
v7
o2
o2
o2
o2
n2.4
v1
v3
v5
v5
o2
o2
o2
o2
n6.62
v1
v3
v5
v6
o2
o2
o2
o2
n2.25
v3
v3
v5
v5
o2
o2
o2
o2
n8.23
v3
v4
v4
v7
o2
o2
o2
o2
o2
n6.75
v0
v0
v1
v1
v6
o2
o2
o2
o2
o2
n5.17
v0
v0
v1
v6
v7
o2
o2
o2
o2
o2
n1.23
v0
v0
v2
v4
v7
o2
o2
o2
o2
o2
n1.11
v0
v0
v5
v6
v7
o2
o2
o2
o2
o2
n0.91
v0
v1
v2
v3
v5
o2
o2
o2
o2
o2
n2.18
v0
v1
v3
v3
v6
o2
o2
o2
o2
o2
n2.43
v0
v2
v3
v3
v7
o2
o2
o2
o2
o2
n2.91
v0
v2
v3
v4
v6
o2
o2
o2
o2
o2
n0.34
v0
v2
v3
v5
v5
o2
o2
o2
o2
o2
n7.45
v0
v2
v4
v4
v4
o16
o2
o2
o2
o2
o2
n0.23
v0
v3
v3
v3
v3
o2
o2
o2
o2
o2
n9.98
v0
v4
v4
v5
v7
o2
o2
o2
o2
o2
n4.96
v0
v5
v5
v5
v6
o2
o2
o2
o2
o2
n3.43
v1
v1
v1
v1
v3
o2
o2
o2
o2
o2
n5.62
v1
v1
v1
v4
v7
o2
o2
o2
o2
o2
n0.54
v1
v1
v3
v5
v6
o16
o2
o2
o2
o2
o2
n3.73
v1
v2
v2
v4
v5
o2
o2
o2
o2
o2
n6.4
v1
v2
v2
v6
v6
o2
o2
o2
o2
o2
n6.33
v1
v2
v3
v4
v5
o2
o2
o2
o2
o2
n6.4
v1
v2
v5
v5
v7
o2
o2
o2
o2
o2
n0.44
v1
v2
v5
v6
v6
o2
o2
o2
o2
o2
n8.81
v1
v2
v6
v7
v7
o2
o2
o2
o2
o2
n8.38
v1
v2
v7
v7
v7
o2
o2
o2
o2
o2
n5.95
v1
v3
v3
v4
v7
o2
o2
o2
o2
o2
n0.82
v1
v4
v4
v4
v6
o16
o2
o2
o2
o2
o2
n2.96
v1
v5
v7
v7
v7
o2
o2
o2
o2
o2
n8.69
v2
v2
v3
v5
v7
o2
o2
o2
o2
o2
n8.46
v2
v3
v3
v4
v4
o2
o2
o2
o2
o2
n0.87
v2
v3
v3
v7
v7
o2
o2
o2
o2
o2
n5.85
v2
v3
v4
v4
v6
o2
o2
o2
o2
o2
n9.05
v2
v3
v5
v6
v7
o2
o2
o2
o2
o2
n9.58
v2
v5
v5
v5
v6
o2
o2
o2
o2
o2
n6.36
v3
v4
v5
v7
v7
o2
o2
o2
o2
o2
n5.3
v3
v4
v6
v6
v7
o2
o2
o2
o2
o2
n1.33
v4
v4
v5
v5
v6
o2
o2
o2
o2
o2
n8.05
v4
v6
v6
v7
v7
k7
9
18
27
36
45
54
63
J0 8
0 4.23
1 1.51
2 6.17
3 7.58
4 -7.8
5 7.28
6 0.5
7 3.86
J1 8
0 5.22
1 4.32
2 9.95
3 9.46
4 6.47
5 5.41
6 -4.13
7 8.02
J2 8
0 7.99
1 1.65
2 5.52
3 -0.1
4 4.57
5 7.97
6 1.03
7 7.58
J3 8
0 2.04
1 3.05
2 4.21
3 -9.47
4 2.93
5 8.97
6 8.2
7 7.55
J4 8
0 5.92
1 5.03
2 3.46
3 3.47
4 7.57
5 3.91
6 3.52
7 7.05
J5 8
0 6.29
1 6.98
2 4.73
3 7.87
4 8.45
5 3.77
6 4.45
7 8.89
J6 8
0 9.64
1 5.04
2 6.42
3 2.65
4 7.36
5 5.2
6 0.31
7 -0.19
J7 8
0 1.95
1 1.22
2 6.14
3 9.38
4 8.85
5 5.28
6 7.92
7 2.04
J8 8
0 4.55
1 6.76
2 0.62
3 6
4 9.08
5 7.09
6 8.86
7 3.24
G0 8
0 5.16
1 0.41
2 0.89
3 0.42
4 9.8
5 5.99
6 -3.05
7 1.01
